\ Model Diesel Fuel Delivery
\ LP format - for model browsing. Use MPS format to capture full model detail.
Minimize
  0 C0 + 59.3 C1 + 31.6 C2 + 47.8 C3 + 34.2 C4 + 47.1 C5 + 36.1 C6 + 31.9 C7
   + 62.2 C8 + 0 C9 + 27.9 C10 + 21 C11 + 77.5 C12 + 30 C13 + 27.1 C14
   + 44.7 C15 + 32.2 C16 + 27.7 C17 + 0 C18 + 16.2 C19 + 50 C20 + 39.4 C21
   + 24.9 C22 + 42.6 C23 + 50.7 C24 + 21 C25 + 16.4 C26 + 0 C27 + 66.1 C28
   + 49.7 C29 + 35.2 C30 + 52.9 C31 + 34.4 C32 + 77.4 C33 + 49.6 C34
   + 65.9 C35 + 0 C36 + 80.8 C37 + 67.1 C38 + 65.5 C39 + 46.9 C40
   + 30.1 C41 + 39.6 C42 + 49.7 C43 + 80.5 C44 + 0 C45 + 14.4 C46 + 15 C47
   + 36.9 C48 + 27.1 C49 + 25.2 C50 + 35.2 C51 + 67.1 C52 + 14.4 C53
   + 0 C54 + 17.6 C55 + 31.9 C56 + 44.7 C57 + 62.8 C58 + 52.8 C59
   + 65.6 C60 + 15 C61 + 17.6 C62 + 0 C63
Subject To
 R0: C1 + C17 + C25 + C33 + C41 + C49 + C57 = 1
 R1: C2 + C10 + C26 + C34 + C42 + C50 + C58 = 1
 R2: C3 + C11 + C19 + C35 + C43 + C51 + C59 = 1
 R3: C4 + C12 + C20 + C28 + C44 + C52 + C60 = 1
 R4: C5 + C13 + C21 + C29 + C37 + C53 + C61 = 1
 R5: C6 + C14 + C22 + C30 + C38 + C46 + C62 = 1
 R6: C7 + C15 + C23 + C31 + C39 + C47 + C55 = 1
 R7: C8 + C10 + C11 + C12 + C13 + C14 + C15 = 1
 R8: C16 + C17 + C19 + C20 + C21 + C22 + C23 = 1
 R9: C24 + C25 + C26 + C28 + C29 + C30 + C31 = 1
 R10: C32 + C33 + C34 + C35 + C37 + C38 + C39 = 1
 R11: C40 + C41 + C42 + C43 + C44 + C46 + C47 = 1
 R12: C48 + C49 + C50 + C51 + C52 + C53 + C55 = 1
 R13: C56 + C57 + C58 + C59 + C60 + C61 + C62 = 1
 R14: 3500 C1 + C64 <= 4500
 R15: 3300 C2 + C65 <= 4500
 R16: 2900 C3 + C66 <= 4500
 R17: 3100 C4 + C67 <= 4500
 R18: 3300 C5 + C68 <= 4500
 R19: 3500 C6 + C69 <= 4500
 R20: 2800 C7 + C70 <= 4500
 R21: 4500 C10 + C64 - C65 <= 3300
 R22: 4500 C11 + C64 - C66 <= 2900
 R23: 4500 C12 + C64 - C67 <= 3100
 R24: 4500 C13 + C64 - C68 <= 3300
 R25: 4500 C14 + C64 - C69 <= 3500
 R26: 4500 C15 + C64 - C70 <= 2800
 R27: 4500 C17 - C64 + C65 <= 3500
 R28: 4500 C19 + C65 - C66 <= 2900
 R29: 4500 C20 + C65 - C67 <= 3100
 R30: 4500 C21 + C65 - C68 <= 3300
 R31: 4500 C22 + C65 - C69 <= 3500
 R32: 4500 C23 + C65 - C70 <= 2800
 R33: 4500 C25 - C64 + C66 <= 3500
 R34: 4500 C26 - C65 + C66 <= 3300
 R35: 4500 C28 + C66 - C67 <= 3100
 R36: 4500 C29 + C66 - C68 <= 3300
 R37: 4500 C30 + C66 - C69 <= 3500
 R38: 4500 C31 + C66 - C70 <= 2800
 R39: 4500 C33 - C64 + C67 <= 3500
 R40: 4500 C34 - C65 + C67 <= 3300
 R41: 4500 C35 - C66 + C67 <= 2900
 R42: 4500 C37 + C67 - C68 <= 3300
 R43: 4500 C38 + C67 - C69 <= 3500
 R44: 4500 C39 + C67 - C70 <= 2800
 R45: 4500 C41 - C64 + C68 <= 3500
 R46: 4500 C42 - C65 + C68 <= 3300
 R47: 4500 C43 - C66 + C68 <= 2900
 R48: 4500 C44 - C67 + C68 <= 3100
 R49: 4500 C46 + C68 - C69 <= 3500
 R50: 4500 C47 + C68 - C70 <= 2800
 R51: 4500 C49 - C64 + C69 <= 3500
 R52: 4500 C50 - C65 + C69 <= 3300
 R53: 4500 C51 - C66 + C69 <= 2900
 R54: 4500 C52 - C67 + C69 <= 3100
 R55: 4500 C53 - C68 + C69 <= 3300
 R56: 4500 C55 + C69 - C70 <= 2800
 R57: 4500 C57 - C64 + C70 <= 3500
 R58: 4500 C58 - C65 + C70 <= 3300
 R59: 4500 C59 - C66 + C70 <= 2900
 R60: 4500 C60 - C67 + C70 <= 3100
 R61: 4500 C61 - C68 + C70 <= 3300
 R62: 4500 C62 - C69 + C70 <= 3500
Bounds
 1000 <= C64 <= 4500
 1200 <= C65 <= 4500
 1600 <= C66 <= 4500
 1400 <= C67 <= 4500
 1200 <= C68 <= 4500
 1000 <= C69 <= 4500
 1700 <= C70 <= 4500
Binaries
 C0 C1 C2 C3 C4 C5 C6 C7 C8 C9 C10 C11 C12 C13 C14 C15 C16 C17 C18 C19 C20
 C21 C22 C23 C24 C25 C26 C27 C28 C29 C30 C31 C32 C33 C34 C35 C36 C37 C38
 C39 C40 C41 C42 C43 C44 C45 C46 C47 C48 C49 C50 C51 C52 C53 C54 C55 C56
 C57 C58 C59 C60 C61 C62 C63
End
